p cnf 201 927
63 89 114 116 120 0
90 91 101 0
117 119 166 0
79 96 106 107 0
123 124 127 169 0
83 126 130 132 133 0
86 109 135 172 0
58 73 137 174 0
72 145 180 184 0
94 122 151 188 0
190 192 0
65 100 111 0
61 87 92 0
60 98 125 0
112 131 0
57 59 85 0
54 56 62 76 136 0
139 140 142 0
80 143 144 182 0
95 148 150 153 0
156 157 158 0
67 121 0
160 162 164 0
118 167 0
128 168 0
129 134 170 171 0
74 77 138 173 175 0
141 177 178 0
69 71 146 179 181 185 0
104 186 187 0
149 152 154 189 0
68 159 191 193 0
194 196 197 198 199 0
93 102 115 0
82 165 0
200 201 0
70 183 0
51 53 0
48 50 0
-101 -120 0
-46 -120 0
-107 -120 0
-120 -126 0
-46 -101 0
-101 -107 0
-101 -126 0
-46 -107 0
-46 -126 0
-107 -126 0
-58 -176 0
-58 -72 0
-58 -151 0
-58 -195 0
-72 -176 0
-151 -176 0
-176 -195 0
-72 -151 0
-72 -195 0
-151 -195 0
-62 -139 0
-62 -143 0
-62 -95 0
-45 -62 0
-139 -143 0
-95 -139 0
-45 -139 0
-95 -143 0
-45 -143 0
-45 -95 0
-43 -44 0
-44 -160 0
-42 -44 0
-44 -170 0
-43 -160 0
-42 -43 0
-43 -170 0
-42 -160 0
-160 -170 0
-42 -170 0
-141 -173 0
-173 -179 0
-149 -173 0
-173 -194 0
-141 -179 0
-141 -149 0
-141 -194 0
-149 -179 0
-179 -194 0
-149 -194 0
-58 -120 0
-62 -120 0
-44 -120 0
-120 -173 0
-58 -62 0
-44 -58 0
-58 -173 0
-44 -62 0
-62 -173 0
-44 -173 0
-101 -176 0
-101 -139 0
-43 -101 0
-101 -141 0
-139 -176 0
-43 -176 0
-141 -176 0
-43 -139 0
-139 -141 0
-43 -141 0
-46 -72 0
-46 -143 0
-46 -160 0
-46 -179 0
-72 -143 0
-72 -160 0
-72 -179 0
-143 -160 0
-143 -179 0
-160 -179 0
-107 -151 0
-95 -107 0
-42 -107 0
-107 -149 0
-95 -151 0
-42 -151 0
-149 -151 0
-42 -95 0
-95 -149 0
-42 -149 0
-126 -195 0
-45 -126 0
-126 -170 0
-126 -194 0
-45 -195 0
-170 -195 0
-194 -195 0
-45 -170 0
-45 -194 0
-170 -194 0
-91 -166 0
-79 -91 0
-91 -133 0
-79 -166 0
-133 -166 0
-79 -133 0
-40 -41 0
-41 -94 0
-39 -41 0
-40 -94 0
-39 -40 0
-39 -94 0
-52 -140 0
-140 -148 0
-49 -140 0
-52 -148 0
-49 -52 0
-49 -148 0
-177 -186 0
-152 -177 0
-177 -196 0
-152 -186 0
-186 -196 0
-152 -196 0
-41 -91 0
-91 -140 0
-91 -177 0
-41 -140 0
-41 -177 0
-140 -177 0
-40 -166 0
-52 -166 0
-166 -186 0
-40 -52 0
-40 -186 0
-52 -186 0
-79 -94 0
-79 -148 0
-79 -152 0
-94 -148 0
-94 -152 0
-148 -152 0
-39 -133 0
-49 -133 0
-133 -196 0
-39 -49 0
-39 -196 0
-49 -196 0
-38 -87 0
-60 -87 0
-37 -87 0
-87 -131 0
-38 -60 0
-37 -38 0
-38 -131 0
-37 -60 0
-60 -131 0
-37 -131 0
-36 -56 0
-56 -150 0
-56 -156 0
-47 -56 0
-36 -150 0
-36 -156 0
-36 -47 0
-150 -156 0
-47 -150 0
-47 -156 0
-35 -167 0
-35 -78 0
-35 -168 0
-35 -134 0
-78 -167 0
-167 -168 0
-134 -167 0
-78 -168 0
-78 -134 0
-134 -168 0
-34 -115 0
-33 -115 0
-32 -115 0
-115 -200 0
-33 -34 0
-32 -34 0
-34 -200 0
-32 -33 0
-33 -200 0
-32 -200 0
-31 -53 0
-31 -147 0
-30 -31 0
-31 -50 0
-53 -147 0
-30 -53 0
-50 -53 0
-30 -147 0
-50 -147 0
-30 -50 0
-56 -87 0
-35 -87 0
-87 -115 0
-31 -87 0
-35 -56 0
-56 -115 0
-31 -56 0
-35 -115 0
-31 -35 0
-31 -115 0
-36 -38 0
-38 -167 0
-34 -38 0
-38 -53 0
-36 -167 0
-34 -36 0
-36 -53 0
-34 -167 0
-53 -167 0
-34 -53 0
-60 -150 0
-60 -78 0
-33 -60 0
-60 -147 0
-78 -150 0
-33 -150 0
-147 -150 0
-33 -78 0
-78 -147 0
-33 -147 0
-37 -156 0
-37 -168 0
-32 -37 0
-30 -37 0
-156 -168 0
-32 -156 0
-30 -156 0
-32 -168 0
-30 -168 0
-30 -32 0
-47 -131 0
-131 -134 0
-131 -200 0
-50 -131 0
-47 -134 0
-47 -200 0
-47 -50 0
-134 -200 0
-50 -134 0
-50 -200 0
-89 -161 0
-89 -123 0
-89 -130 0
-123 -161 0
-130 -161 0
-123 -130 0
-54 -80 0
-54 -157 0
-29 -54 0
-80 -157 0
-29 -80 0
-29 -157 0
-71 -77 0
-68 -77 0
-77 -197 0
-68 -71 0
-71 -197 0
-68 -197 0
-55 -70 0
-55 -155 0
-48 -55 0
-70 -155 0
-48 -70 0
-48 -155 0
-54 -89 0
-77 -89 0
-55 -89 0
-54 -77 0
-54 -55 0
-55 -77 0
-80 -161 0
-71 -161 0
-70 -161 0
-71 -80 0
-70 -80 0
-70 -71 0
-123 -157 0
-68 -123 0
-123 -155 0
-68 -157 0
-155 -157 0
-68 -155 0
-29 -130 0
-130 -197 0
-48 -130 0
-29 -197 0
-29 -48 0
-48 -197 0
-90 -116 0
-28 -116 0
-116 -132 0
-116 -135 0
-28 -90 0
-90 -132 0
-90 -135 0
-28 -132 0
-28 -135 0
-132 -135 0
-27 -137 0
-137 -145 0
-26 -137 0
-111 -137 0
-27 -145 0
-26 -27 0
-27 -111 0
-26 -145 0
-111 -145 0
-26 -111 0
-76 -142 0
-76 -182 0
-25 -76 0
-67 -76 0
-142 -182 0
-25 -142 0
-67 -142 0
-25 -182 0
-67 -182 0
-25 -67 0
-24 -88 0
-88 -162 0
-88 -129 0
-23 -88 0
-24 -162 0
-24 -129 0
-23 -24 0
-129 -162 0
-23 -162 0
-23 -129 0
-74 -178 0
-69 -74 0
-74 -198 0
-22 -74 0
-69 -178 0
-178 -198 0
-22 -178 0
-69 -198 0
-22 -69 0
-22 -198 0
-116 -137 0
-76 -116 0
-88 -116 0
-74 -116 0
-76 -137 0
-88 -137 0
-74 -137 0
-76 -88 0
-74 -76 0
-74 -88 0
-27 -90 0
-90 -142 0
-24 -90 0
-90 -178 0
-27 -142 0
-24 -27 0
-27 -178 0
-24 -142 0
-142 -178 0
-24 -178 0
-28 -145 0
-28 -182 0
-28 -162 0
-28 -69 0
-145 -182 0
-145 -162 0
-69 -145 0
-162 -182 0
-69 -182 0
-69 -162 0
-26 -132 0
-25 -132 0
-129 -132 0
-132 -198 0
-25 -26 0
-26 -129 0
-26 -198 0
-25 -129 0
-25 -198 0
-129 -198 0
-111 -135 0
-67 -135 0
-23 -135 0
-22 -135 0
-67 -111 0
-23 -111 0
-22 -111 0
-23 -67 0
-22 -67 0
-22 -23 0
-114 -163 0
-114 -119 0
-106 -114 0
-114 -127 0
-109 -114 0
-119 -163 0
-106 -163 0
-127 -163 0
-109 -163 0
-106 -119 0
-119 -127 0
-109 -119 0
-106 -127 0
-106 -109 0
-109 -127 0
-174 -180 0
-103 -174 0
-174 -188 0
-174 -190 0
-65 -174 0
-103 -180 0
-180 -188 0
-180 -190 0
-65 -180 0
-103 -188 0
-103 -190 0
-65 -103 0
-188 -190 0
-65 -188 0
-65 -190 0
-81 -92 0
-21 -92 0
-92 -98 0
-19 -92 0
-85 -92 0
-21 -81 0
-81 -98 0
-19 -81 0
-81 -85 0
-21 -98 0
-19 -21 0
-21 -85 0
-19 -98 0
-85 -98 0
-19 -85 0
-138 -146 0
-138 -187 0
-138 -154 0
-138 -159 0
-110 -138 0
-146 -187 0
-146 -154 0
-146 -159 0
-110 -146 0
-154 -187 0
-159 -187 0
-110 -187 0
-154 -159 0
-110 -154 0
-110 -159 0
-102 -165 0
-17 -102 0
-16 -102 0
-15 -102 0
-14 -102 0
-17 -165 0
-16 -165 0
-15 -165 0
-14 -165 0
-16 -17 0
-15 -17 0
-14 -17 0
-15 -16 0
-14 -16 0
-14 -15 0
-75 -183 0
-51 -75 0
-13 -75 0
-12 -75 0
-66 -75 0
-51 -183 0
-13 -183 0
-12 -183 0
-66 -183 0
-13 -51 0
-12 -51 0
-51 -66 0
-12 -13 0
-13 -66 0
-12 -66 0
-114 -174 0
-92 -114 0
-114 -138 0
-102 -114 0
-75 -114 0
-92 -174 0
-138 -174 0
-102 -174 0
-75 -174 0
-92 -138 0
-92 -102 0
-75 -92 0
-102 -138 0
-75 -138 0
-75 -102 0
-163 -180 0
-81 -163 0
-146 -163 0
-163 -165 0
-163 -183 0
-81 -180 0
-146 -180 0
-165 -180 0
-180 -183 0
-81 -146 0
-81 -165 0
-81 -183 0
-146 -165 0
-146 -183 0
-165 -183 0
-103 -119 0
-21 -119 0
-119 -187 0
-17 -119 0
-51 -119 0
-21 -103 0
-103 -187 0
-17 -103 0
-51 -103 0
-21 -187 0
-17 -21 0
-21 -51 0
-17 -187 0
-51 -187 0
-17 -51 0
-106 -188 0
-98 -106 0
-106 -154 0
-16 -106 0
-13 -106 0
-98 -188 0
-154 -188 0
-16 -188 0
-13 -188 0
-98 -154 0
-16 -98 0
-13 -98 0
-16 -154 0
-13 -154 0
-13 -16 0
-127 -190 0
-19 -127 0
-127 -159 0
-15 -127 0
-12 -127 0
-19 -190 0
-159 -190 0
-15 -190 0
-12 -190 0
-19 -159 0
-15 -19 0
-12 -19 0
-15 -159 0
-12 -159 0
-12 -15 0
-65 -109 0
-85 -109 0
-109 -110 0
-14 -109 0
-66 -109 0
-65 -85 0
-65 -110 0
-14 -65 0
-65 -66 0
-85 -110 0
-14 -85 0
-66 -85 0
-14 -110 0
-66 -110 0
-14 -66 0
-11 -63 0
-63 -117 0
-63 -96 0
-63 -124 0
-63 -83 0
-63 -86 0
-11 -117 0
-11 -96 0
-11 -124 0
-11 -83 0
-11 -86 0
-96 -117 0
-117 -124 0
-83 -117 0
-86 -117 0
-96 -124 0
-83 -96 0
-86 -96 0
-83 -124 0
-86 -124 0
-83 -86 0
-73 -184 0
-10 -73 0
-73 -122 0
-73 -192 0
-9 -73 0
-73 -100 0
-10 -184 0
-122 -184 0
-184 -192 0
-9 -184 0
-100 -184 0
-10 -122 0
-10 -192 0
-9 -10 0
-10 -100 0
-122 -192 0
-9 -122 0
-100 -122 0
-9 -192 0
-100 -192 0
-9 -100 0
-8 -61 0
-7 -61 0
-61 -125 0
-6 -61 0
-61 -112 0
-59 -61 0
-7 -8 0
-8 -125 0
-6 -8 0
-8 -112 0
-8 -59 0
-7 -125 0
-6 -7 0
-7 -112 0
-7 -59 0
-6 -125 0
-112 -125 0
-59 -125 0
-6 -112 0
-6 -59 0
-59 -112 0
-136 -144 0
-5 -136 0
-136 -153 0
-136 -158 0
-4 -136 0
-121 -136 0
-5 -144 0
-144 -153 0
-144 -158 0
-4 -144 0
-121 -144 0
-5 -153 0
-5 -158 0
-4 -5 0
-5 -121 0
-153 -158 0
-4 -153 0
-121 -153 0
-4 -158 0
-121 -158 0
-4 -121 0
-113 -164 0
-113 -118 0
-105 -113 0
-113 -128 0
-113 -171 0
-108 -113 0
-118 -164 0
-105 -164 0
-128 -164 0
-164 -171 0
-108 -164 0
-105 -118 0
-118 -128 0
-118 -171 0
-108 -118 0
-105 -128 0
-105 -171 0
-105 -108 0
-128 -171 0
-108 -128 0
-108 -171 0
-175 -181 0
-104 -175 0
-175 -189 0
-175 -191 0
-175 -199 0
-64 -175 0
-104 -181 0
-181 -189 0
-181 -191 0
-181 -199 0
-64 -181 0
-104 -189 0
-104 -191 0
-104 -199 0
-64 -104 0
-189 -191 0
-189 -199 0
-64 -189 0
-191 -199 0
-64 -191 0
-64 -199 0
-82 -93 0
-20 -93 0
-93 -97 0
-18 -93 0
-93 -201 0
-84 -93 0
-20 -82 0
-82 -97 0
-18 -82 0
-82 -201 0
-82 -84 0
-20 -97 0
-18 -20 0
-20 -201 0
-20 -84 0
-18 -97 0
-97 -201 0
-84 -97 0
-18 -201 0
-18 -84 0
-84 -201 0
-63 -73 0
-61 -63 0
-63 -136 0
-63 -113 0
-63 -175 0
-63 -93 0
-61 -73 0
-73 -136 0
-73 -113 0
-73 -175 0
-73 -93 0
-61 -136 0
-61 -113 0
-61 -175 0
-61 -93 0
-113 -136 0
-136 -175 0
-93 -136 0
-113 -175 0
-93 -113 0
-93 -175 0
-11 -184 0
-8 -11 0
-11 -144 0
-11 -164 0
-11 -181 0
-11 -82 0
-8 -184 0
-144 -184 0
-164 -184 0
-181 -184 0
-82 -184 0
-8 -144 0
-8 -164 0
-8 -181 0
-8 -82 0
-144 -164 0
-144 -181 0
-82 -144 0
-164 -181 0
-82 -164 0
-82 -181 0
-10 -117 0
-7 -117 0
-5 -117 0
-117 -118 0
-104 -117 0
-20 -117 0
-7 -10 0
-5 -10 0
-10 -118 0
-10 -104 0
-10 -20 0
-5 -7 0
-7 -118 0
-7 -104 0
-7 -20 0
-5 -118 0
-5 -104 0
-5 -20 0
-104 -118 0
-20 -118 0
-20 -104 0
-96 -122 0
-96 -125 0
-96 -153 0
-96 -105 0
-96 -189 0
-96 -97 0
-122 -125 0
-122 -153 0
-105 -122 0
-122 -189 0
-97 -122 0
-125 -153 0
-105 -125 0
-125 -189 0
-97 -125 0
-105 -153 0
-153 -189 0
-97 -153 0
-105 -189 0
-97 -105 0
-97 -189 0
-124 -192 0
-6 -124 0
-124 -158 0
-124 -128 0
-124 -191 0
-18 -124 0
-6 -192 0
-158 -192 0
-128 -192 0
-191 -192 0
-18 -192 0
-6 -158 0
-6 -128 0
-6 -191 0
-6 -18 0
-128 -158 0
-158 -191 0
-18 -158 0
-128 -191 0
-18 -128 0
-18 -191 0
-9 -83 0
-83 -112 0
-4 -83 0
-83 -171 0
-83 -199 0
-83 -201 0
-9 -112 0
-4 -9 0
-9 -171 0
-9 -199 0
-9 -201 0
-4 -112 0
-112 -171 0
-112 -199 0
-112 -201 0
-4 -171 0
-4 -199 0
-4 -201 0
-171 -199 0
-171 -201 0
-199 -201 0
-86 -100 0
-59 -86 0
-86 -121 0
-86 -108 0
-64 -86 0
-84 -86 0
-59 -100 0
-100 -121 0
-100 -108 0
-64 -100 0
-84 -100 0
-59 -121 0
-59 -108 0
-59 -64 0
-59 -84 0
-108 -121 0
-64 -121 0
-84 -121 0
-64 -108 0
-84 -108 0
-64 -84 0
-3 -169 0
-3 -172 0
-169 -172 0
-1 -2 0
-2 -57 0
-1 -57 0
-185 -193 0
-99 -185 0
-99 -193 0
-2 -3 0
-3 -185 0
-2 -185 0
-1 -169 0
-169 -193 0
-1 -193 0
-57 -172 0
-99 -172 0
-57 -99 0
